Data path: /scratch/opt/lxu/CFLG/benchmarks/random_A
Instance: r_15_0.1_14.txt
Result path: /scratch/opt/lxu/CFLG/results/random_A
Solver: Gurobi
Time limit: 3600
Formulation: LEFPD
Cover: Large
julia --project=. src/main.jl /scratch/opt/lxu/CFLG/benchmarks/random_A r_15_0.1_14.txt /scratch/opt/lxu/CFLG/results/random_A Gurobi 3600 LEFPD Large
The latest version of Julia in the `release` channel is 1.11.5+0.x64.linux.gnu. You currently have `1.11.4+0.x64.linux.gnu` installed. Run:

  juliaup update

in your terminal shell to install Julia 1.11.5+0.x64.linux.gnu and update the `release` channel to that version.
/scratch/opt/lxu/CFLG/benchmarks/random_A Gurobi 3600.0 /scratch/opt/lxu/CFLG/results/random_A r_15_0.1_14.txt LEFPD Large
/scratch/opt/lxu/CFLG/benchmarks/random_A/r_15_0.1_14.txt

 read graph
data loaded

problem_graph/original graph: node: 15/15 edge: 14/14 dlt: 1.3060203950506006 break_avg_len: 0.6530101975253003 break_max_len: 0.9684685398380044Set parameter TokenServer to value "solice01.zib.de"
Set parameter Threads to value 1
Set parameter OutputFlag to value 1
Gurobi Optimizer version 12.0.1 build v12.0.1rc0 (linux64 - "Debian GNU/Linux 12 (bookworm)")

CPU model: Intel(R) Xeon(R) Gold 5122 CPU @ 3.60GHz, instruction set [SSE2|AVX|AVX2|AVX512]
Thread count: 8 physical cores, 16 logical processors, using up to 1 threads

Non-default parameters:
Threads  1

Optimize a model with 29 rows, 42 columns and 70 nonzeros
Model fingerprint: 0xbbd50083
Coefficient statistics:
  Matrix range     [1e+00, 1e+00]
  Objective range  [1e+00, 1e+00]
  Bounds range     [1e+00, 1e+00]
  RHS range        [1e+00, 1e+00]
Presolve removed 29 rows and 42 columns
Presolve time: 0.00s
Presolve: All rows and columns removed
Iteration    Objective       Primal Inf.    Dual Inf.      Time
       0    6.0000000e+00   0.000000e+00   0.000000e+00      0s

Solved in 0 iterations and 0.00 seconds (0.00 work units)
Optimal objective  6.000000000e+00

User-callback calls 35, time in user-callback 0.00 sec
elapsed CPU time: 1.223097 seconds
Set parameter TokenServer to value "solice01.zib.de"
Set parameter Threads to value 1
Set parameter OutputFlag to value 1
Set parameter MIPGap to value 0.0001
Set parameter MIPGapAbs to value 1
Set parameter TimeLimit to value 3598.776903

 more cuts:falsefalse
6 0
formulation:LEFPD0 14 15

 model loaded

Gurobi Optimizer version 12.0.1 build v12.0.1rc0 (linux64 - "Debian GNU/Linux 12 (bookworm)")

CPU model: Intel(R) Xeon(R) Gold 5122 CPU @ 3.60GHz, instruction set [SSE2|AVX|AVX2|AVX512]
Thread count: 8 physical cores, 16 logical processors, using up to 1 threads

Non-default parameters:
TimeLimit  3598.776903
MIPGapAbs  1
Threads  1

Optimize a model with 382 rows, 260 columns and 1030 nonzeros
Model fingerprint: 0x3dc1558a
Variable types: 130 continuous, 130 integer (130 binary)
Coefficient statistics:
  Matrix range     [4e-02, 1e+00]
  Objective range  [1e+00, 1e+00]
  Bounds range     [3e-01, 1e+00]
  RHS range        [3e-01, 2e+00]
Found heuristic solution: objective 7.0000000
Presolve removed 230 rows and 134 columns
Presolve time: 0.01s
Presolved: 152 rows, 126 columns, 515 nonzeros
Variable types: 50 continuous, 76 integer (76 binary)

Root relaxation: objective 2.271286e+00, 111 iterations, 0.00 seconds (0.00 work units)

    Nodes    |    Current Node    |     Objective Bounds      |     Work
 Expl Unexpl |  Obj  Depth IntInf | Incumbent    BestBd   Gap | It/Node Time

     0     0    2.27129    0   31    7.00000    2.27129  67.6%     -    0s
H    0     0                       4.0000000    2.27129  43.2%     -    0s
     0     0    2.89690    0   35    4.00000    2.89690  27.6%     -    0s
     0     0     cutoff    0         4.00000    4.00000  0.00%     -    0s

Cutting planes:
  Gomory: 3
  Cover: 5
  Implied bound: 3
  MIR: 6
  Flow cover: 4
  GUB cover: 3
  RLT: 7
  Relax-and-lift: 1

Explored 1 nodes (169 simplex iterations) in 0.02 seconds (0.01 work units)
Thread count was 1 (of 16 available processors)

Solution count 2: 4 7 

Optimal solution found (tolerance 1.00e-04)
Best objective 4.000000000000e+00, best bound 4.000000000000e+00, gap 0.0000%

User-callback calls 1062, time in user-callback 0.00 sec

 sepatime0
4.0Stat(MathOptInterface.OPTIMAL, 4.0, 4.0, 0.0, 0.0, 1.223097, 0.01897597312927246, 1, Main.CFLG.LEFPD, "", #undef)
